WARNING: for repeatability, setting FPU to use double precision
============================[ Problem Statistics ]=============================
|                                                                             |
|  Number of variables:         14399                                         |
|  Number of clauses:          136063                                         |
|  Parse time:                   0.06 s                                       |
|  Eliminated clauses:           0.01 Mb                                      |
|  Simplification time:          0.07 s                                       |
|                                                                             |
============================[ Search Statistics ]==============================
| Conflicts |          ORIGINAL         |          LEARNT          | Progress |
|           |    Vars  Clauses Literals |    Limit  Clauses Lit/Cl |          |
===============================================================================
|       100 |    1550    15338    41769 |     5623      100     16 | 83.422 % |
|       250 |    1550    15338    41769 |     6186      250     15 | 83.422 % |
|       475 |    1550    15338    41769 |     6804      475     17 | 83.422 % |
===============================================================================
restarts              : 6
conflicts             : 795            (5705 /sec)
decisions             : 3809           (0.00 % random) (27335 /sec)
propagations          : 43069          (309082 /sec)
conflict literals     : 14651          (5.70 % deleted)
Memory used           : 29.00 MB
CPU time              : 0.139345 s

SATISFIABLE
WARNING: for repeatability, setting FPU to use double precision
============================[ Problem Statistics ]=============================
|                                                                             |
|  Number of variables:         14399                                         |
|  Number of clauses:          136063                                         |
|  Parse time:                   0.05 s                                       |
|  Eliminated clauses:           0.01 Mb                                      |
|  Simplification time:          0.05 s                                       |
|                                                                             |
============================[ Search Statistics ]==============================
| Conflicts |          ORIGINAL         |          LEARNT          | Progress |
|           |    Vars  Clauses Literals |    Limit  Clauses Lit/Cl |          |
===============================================================================
|       100 |    1550    15338    41769 |     5623      100     16 | 83.422 % |
|       250 |    1550    15338    41769 |     6186      250     15 | 83.422 % |
|       475 |    1550    15338    41769 |     6804      475     17 | 83.422 % |
===============================================================================
restarts              : 6
conflicts             : 795            (7824 /sec)
decisions             : 3809           (0.00 % random) (37487 /sec)
propagations          : 43069          (423874 /sec)
conflict literals     : 14651          (5.70 % deleted)
Memory used           : 29.00 MB
CPU time              : 0.101608 s

SATISFIABLE
